2
4
20
1 1.3 1.55 1.75 2.1
6 46 19 30 25 48 36 41 17 40 43 20 49 47 33 7 18 13 31 38 17 44 17 10 41 7 12 15 44 14 35 15 33 21 25 8 10 10 18 33 41 13 16 20 41 32 48 43 11 47 27 8 7 39 19 47 30 30 17 18 49 19 7 26 22 32 41 27 5 35 18 24 15 29 6 23 7 35 37 34 